Optimal - objective value 1934.00000000
      0 x_0_1                  0                     230
      1 x_0_2                  1                     230
      2 x_0_3                  0                       0
      3 x_1_0                  0                       0
      4 x_1_2                  0                       0
      5 x_1_3                  1                       0
      6 x_2_0                  0                       0
      7 x_2_1                  1                       0
      8 x_2_3                  0                     155
      9 x_3_0                  1                       0
     10 x_3_1                  0                     230
     11 x_3_2                  0                     385
     12 u_1                    2                       0
     13 u_2                    1                       0
     14 u_3                    3                       0
